83
0 72 12 27 63 28 50 15 81 4 
29 39 79 67 66 10 33 59 76 40 
7 26 54 42 5 69 49 34 24 13 
58 14 82 56 48 32 78 16 61 18 
46 25 2 57 71 31 38 37 60 30 
80 52 74 20 45 1 22 70 21 65 
41 64 47 23 77 55 53 51 3 8 
6 68 75 62 9 17 43 36 35 73 
44 19 11 
